WARNING: for repeatability, setting FPU to use double precision
============================[ Problem Statistics ]=============================
|                                                                             |
|  Number of variables:            50                                         |
|  Number of clauses:             218                                         |
|  Parse time:                   0.00 s                                       |
|                                                                             |
============================[ Search Statistics ]==============================
| Conflicts |          ORIGINAL         |          LEARNT          | Progress |
|           |    Vars  Clauses Literals |    Limit  Clauses Lit/Cl |          |
===============================================================================
===============================================================================
restarts              : 1
conflicts             : 44             (30705 /sec)
decisions             : 54             (0.00 % random) (37683 /sec)
propagations          : 592            (413119 /sec)
conflict literals     : 139            (13.12 % deleted)
Memory used           : 20.00 MB
CPU time              : 0.001433 s

UNSATISFIABLE
